43 43
29 5
32 10
4 3
41 19
25 5
35 19
39 2
3 2
31 9
20 9
18 14
1 6
24 20
17 13
33 21
10 15
15 1
27 12
23 13
21 14
2 3
22 8
5 11
13 11
40 20
30 10
26 17
37 12
34 16
8 7
7 4
43 1
14 18
11 16
36 15
16 4
38 8
12 17
19 18
28 22
42 21
6 7
9 6
